3
31
0 4 5 8 15 23 22 43 33 29 60 70 79 69 68 77 89 86 94 83 91 81 75 67 64 56 46 36 12 10 1
32
0 11 20 32 53 80 41 31 30 19 28 39 38 47 48 57 55 65 74 85 97 93 90 72 73 63 54 45 37 27 18 9
38
0 3 13 6 7 17 16 14 24 25 26 35 34 42 44 52 51 50 59 62 71 61 78 88 98 96 95 87 84 92 82 76 66 58 49 40 21 2
